benchmarks_CP/INST_36x36/25/inst36x36_25_75.dzn
S=6;
start=[|
-1,	-1,	-1,	-1,	-1,	-1,	30,	9,	36,	4,	-1,	21,	26,	-1,	16,	-1,	-1,	14,	-1,	-1,	-1,	-1,	-1,	-1,	-1,	17,	-1,	-1,	-1,	-1,	11,	-1,	-1,	-1,	15,	-1|
-1,	-1,	14,	-1,	-1,	-1,	-1,	-1,	-1,	-1,	-1,	15,	-1,	30,	25,	-1,	-1,	-1,	-1,	-1,	-1,	20,	11,	3,	-1,	-1,	16,	24,	-1,	5,	33,	-1,	22,	-1,	-1,	23|
-1,	-1,	-1,	-1,	-1,	3,	-1,	-1,	-1,	-1,	29,	-1,	-1,	-1,	-1,	-1,	-1,	11,	-1,	7,	-1,	-1,	-1,	-1,	-1,	-1,	-1,	-1,	-1,	-1,	-1,	-1,	36,	-1,	5,	35|
-1,	-1,	-1,	33,	-1,	-1,	-1,	-1,	18,	-1,	-1,	-1,	23,	-1,	-1,	9,	-1,	-1,	26,	-1,	5,	-1,	-1,	-1,	-1,	-1,	-1,	-1,	-1,	-1,	3,	-1,	4,	-1,	-1,	-1|
-1,	7,	29,	-1,	15,	-1,	28,	-1,	-1,	-1,	16,	-1,	-1,	8,	-1,	-1,	-1,	-1,	-1,	-1,	-1,	17,	33,	-1,	34,	11,	-1,	-1,	-1,	-1,	-1,	-1,	32,	-1,	-1,	-1|
-1,	-1,	32,	-1,	-1,	16,	31,	-1,	-1,	-1,	-1,	-1,	-1,	-1,	-1,	-1,	-1,	-1,	-1,	-1,	15,	-1,	6,	-1,	-1,	22,	-1,	28,	-1,	8,	-1,	-1,	-1,	-1,	-1,	29|
-1,	-1,	-1,	-1,	-1,	-1,	33,	-1,	16,	-1,	-1,	23,	-1,	2,	-1,	14,	21,	-1,	-1,	-1,	-1,	-1,	-1,	11,	-1,	-1,	-1,	-1,	-1,	-1,	-1,	35,	-1,	-1,	19,	-1|
-1,	-1,	-1,	-1,	-1,	-1,	8,	-1,	-1,	-1,	-1,	2,	-1,	-1,	-1,	10,	5,	-1,	-1,	-1,	-1,	32,	12,	-1,	-1,	-1,	-1,	23,	-1,	-1,	-1,	27,	-1,	-1,	-1,	-1|
-1,	-1,	-1,	-1,	-1,	-1,	9,	20,	-1,	-1,	-1,	-1,	-1,	-1,	13,	-1,	15,	22,	-1,	30,	-1,	-1,	-1,	-1,	-1,	-1,	3,	-1,	-1,	-1,	-1,	-1,	-1,	-1,	-1,	-1|
-1,	-1,	-1,	-1,	-1,	-1,	-1,	-1,	-1,	-1,	6,	-1,	-1,	-1,	35,	11,	19,	-1,	-1,	-1,	-1,	-1,	-1,	-1,	-1,	-1,	-1,	-1,	-1,	18,	23,	10,	-1,	-1,	-1,	-1|
-1,	-1,	-1,	-1,	-1,	-1,	-1,	-1,	-1,	-1,	-1,	22,	-1,	6,	32,	-1,	-1,	-1,	-1,	-1,	-1,	-1,	1,	-1,	13,	-1,	-1,	27,	-1,	-1,	36,	30,	-1,	-1,	-1,	3|
1,	-1,	-1,	27,	-1,	-1,	-1,	-1,	21,	13,	-1,	-1,	25,	-1,	-1,	29,	18,	-1,	-1,	-1,	-1,	3,	16,	7,	-1,	36,	2,	-1,	-1,	-1,	-1,	-1,	-1,	20,	6,	-1|
-1,	-1,	-1,	-1,	-1,	-1,	-1,	21,	-1,	-1,	-1,	-1,	29,	-1,	-1,	-1,	-1,	-1,	-1,	-1,	-1,	-1,	-1,	16,	-1,	25,	-1,	36,	-1,	-1,	8,	-1,	13,	-1,	23,	-1|
18,	-1,	-1,	-1,	-1,	35,	-1,	-1,	-1,	6,	-1,	-1,	-1,	-1,	-1,	-1,	3,	-1,	-1,	-1,	23,	-1,	-1,	-1,	19,	-1,	-1,	-1,	-1,	-1,	-1,	-1,	34,	-1,	-1,	-1|
-1,	-1,	15,	-1,	-1,	-1,	10,	18,	-1,	-1,	-1,	31,	-1,	-1,	-1,	19,	4,	30,	28,	-1,	-1,	-1,	-1,	-1,	-1,	-1,	-1,	-1,	-1,	-1,	-1,	-1,	-1,	-1,	20,	-1|
7,	-1,	10,	-1,	-1,	-1,	-1,	-1,	15,	-1,	-1,	-1,	-1,	28,	-1,	-1,	36,	-1,	-1,	-1,	-1,	-1,	25,	-1,	21,	35,	-1,	-1,	-1,	-1,	-1,	-1,	27,	-1,	-1,	-1|
27,	-1,	-1,	29,	-1,	-1,	-1,	-1,	-1,	-1,	-1,	35,	22,	-1,	2,	-1,	6,	-1,	15,	-1,	-1,	-1,	24,	-1,	-1,	-1,	9,	-1,	-1,	33,	7,	-1,	31,	-1,	-1,	-1|
-1,	-1,	-1,	-1,	-1,	-1,	-1,	-1,	22,	-1,	20,	-1,	-1,	-1,	-1,	-1,	27,	-1,	-1,	5,	-1,	-1,	-1,	-1,	-1,	-1,	-1,	-1,	15,	11,	-1,	2,	-1,	-1,	4,	-1|
24,	-1,	-1,	-1,	-1,	-1,	15,	-1,	-1,	-1,	-1,	-1,	-1,	-1,	29,	-1,	-1,	-1,	-1,	-1,	-1,	-1,	-1,	-1,	-1,	-1,	-1,	-1,	-1,	-1,	-1,	-1,	20,	13,	-1,	-1|
-1,	-1,	-1,	-1,	-1,	-1,	1,	-1,	10,	-1,	-1,	-1,	-1,	-1,	-1,	-1,	-1,	-1,	9,	22,	33,	-1,	-1,	-1,	-1,	-1,	-1,	-1,	-1,	34,	-1,	-1,	-1,	-1,	-1,	-1|
-1,	-1,	11,	18,	-1,	-1,	-1,	-1,	-1,	9,	-1,	-1,	-1,	-1,	-1,	-1,	2,	-1,	-1,	-1,	-1,	-1,	-1,	15,	-1,	-1,	-1,	22,	29,	-1,	-1,	-1,	-1,	-1,	-1,	27|
-1,	-1,	-1,	21,	23,	-1,	22,	29,	-1,	-1,	-1,	-1,	35,	10,	-1,	-1,	9,	-1,	-1,	-1,	-1,	-1,	-1,	28,	-1,	-1,	18,	-1,	-1,	-1,	31,	3,	1,	-1,	-1,	-1|
15,	27,	-1,	-1,	-1,	9,	-1,	-1,	-1,	5,	-1,	-1,	12,	-1,	-1,	-1,	14,	-1,	-1,	2,	-1,	-1,	-1,	21,	-1,	-1,	-1,	35,	33,	-1,	4,	-1,	-1,	-1,	-1,	-1|
-1,	-1,	17,	-1,	6,	1,	23,	32,	34,	-1,	-1,	-1,	36,	-1,	-1,	-1,	30,	-1,	-1,	-1,	-1,	24,	4,	-1,	-1,	-1,	-1,	12,	31,	3,	-1,	-1,	33,	-1,	26,	-1|
-1,	3,	-1,	-1,	-1,	-1,	12,	4,	-1,	18,	-1,	-1,	-1,	-1,	-1,	5,	-1,	-1,	-1,	-1,	-1,	-1,	-1,	-1,	27,	-1,	6,	-1,	-1,	16,	-1,	17,	-1,	-1,	-1,	-1|
-1,	-1,	20,	-1,	-1,	34,	-1,	-1,	26,	-1,	-1,	-1,	-1,	29,	-1,	1,	-1,	4,	-1,	-1,	7,	-1,	22,	35,	-1,	-1,	-1,	-1,	-1,	30,	-1,	-1,	-1,	31,	-1,	-1|
-1,	-1,	-1,	-1,	11,	-1,	-1,	-1,	6,	-1,	-1,	-1,	-1,	-1,	-1,	-1,	-1,	-1,	-1,	-1,	1,	-1,	-1,	-1,	-1,	-1,	-1,	-1,	-1,	-1,	-1,	-1,	-1,	-1,	-1,	20|
-1,	-1,	-1,	-1,	-1,	12,	-1,	-1,	-1,	31,	-1,	9,	-1,	19,	-1,	-1,	-1,	-1,	2,	4,	-1,	-1,	-1,	-1,	-1,	5,	33,	-1,	-1,	36,	-1,	-1,	-1,	-1,	-1,	30|
9,	35,	-1,	-1,	18,	32,	25,	-1,	30,	-1,	-1,	-1,	8,	-1,	-1,	-1,	-1,	-1,	19,	-1,	-1,	6,	-1,	27,	-1,	-1,	-1,	-1,	22,	24,	-1,	-1,	-1,	4,	-1,	-1|
-1,	-1,	-1,	-1,	-1,	-1,	-1,	-1,	-1,	-1,	-1,	24,	-1,	-1,	-1,	-1,	-1,	-1,	-1,	-1,	30,	33,	-1,	-1,	7,	-1,	-1,	-1,	34,	-1,	-1,	-1,	-1,	-1,	-1,	5|
-1,	34,	27,	26,	7,	-1,	-1,	-1,	-1,	-1,	-1,	-1,	-1,	15,	-1,	-1,	-1,	-1,	-1,	16,	3,	2,	-1,	-1,	-1,	18,	-1,	25,	-1,	-1,	-1,	32,	-1,	-1,	-1,	-1|
-1,	-1,	-1,	-1,	-1,	-1,	-1,	-1,	-1,	-1,	-1,	-1,	-1,	-1,	-1,	32,	-1,	35,	-1,	-1,	-1,	-1,	-1,	-1,	-1,	-1,	-1,	-1,	-1,	-1,	-1,	-1,	17,	-1,	18,	31|
-1,	-1,	-1,	31,	32,	-1,	5,	-1,	-1,	-1,	-1,	-1,	-1,	-1,	-1,	-1,	7,	-1,	29,	-1,	-1,	-1,	35,	-1,	-1,	-1,	-1,	-1,	-1,	1,	-1,	-1,	-1,	-1,	-1,	-1|
-1,	-1,	-1,	-1,	-1,	20,	27,	-1,	24,	-1,	-1,	-1,	-1,	-1,	-1,	-1,	-1,	1,	-1,	34,	-1,	-1,	-1,	6,	-1,	-1,	-1,	-1,	-1,	-1,	-1,	-1,	3,	23,	-1,	-1|
-1,	-1,	-1,	17,	-1,	14,	-1,	34,	31,	32,	26,	8,	-1,	-1,	-1,	24,	-1,	-1,	-1,	-1,	-1,	-1,	-1,	-1,	6,	-1,	-1,	29,	7,	-1,	-1,	-1,	-1,	-1,	-1,	-1|
-1,	-1,	-1,	-1,	-1,	-1,	-1,	-1,	-1,	-1,	-1,	-1,	19,	-1,	-1,	-1,	-1,	-1,	30,	-1,	-1,	15,	-1,	-1,	-1,	-1,	26,	-1,	-1,	-1,	27,	-1,	-1,	7,	-1,	-1|];
